Route #1: 26 12 40 17 51 6
Route #2: 33 1 43 41 42 64 22
Route #3: 16 63 23 56 49 24 3
Route #4: 9 25 55 18 50 32 44
Route #5: 39 31 10 38 58
Route #6: 11 59 14 53 7
Route #7: 35 19 8 46 34 52 27
Route #8: 54 13 57 15 37 20 60 36 47
Route #9: 21 61 28 62 2
Route #10: 30 48 5 29 45 4
Cost 817